\* Minimize_the_number_of_buses *\
Minimize
Numero_de_buses_: 33.7402 Total_bus_0_0_0 + 33.1968 Total_bus_0_1_0
 + 33.1968 Total_bus_0_1_1 + 43.3238 Total_bus_0_2_0 + 43.3238 Total_bus_0_2_1
 + 42.346 Total_bus_10_0_0 + 41.664 Total_bus_10_1_0 + 41.664 Total_bus_10_1_1
 + 54.374 Total_bus_10_2_0 + 54.374 Total_bus_10_2_1
 + 34.4232 Total_bus_11_0_0 + 33.8688 Total_bus_11_1_0
 + 33.8688 Total_bus_11_1_1 + 44.2008 Total_bus_11_2_0
 + 44.2008 Total_bus_11_2_1 + 46.8538 Total_bus_12_0_0
 + 46.0992 Total_bus_12_1_0 + 46.0992 Total_bus_12_1_1
 + 60.1622 Total_bus_12_2_0 + 60.1622 Total_bus_12_2_1
 + 42.346 Total_bus_13_0_0 + 41.664 Total_bus_13_1_0 + 41.664 Total_bus_13_1_1
 + 54.374 Total_bus_13_2_0 + 54.374 Total_bus_13_2_1
 + 33.1938 Total_bus_14_0_0 + 32.6592 Total_bus_14_1_0
 + 32.6592 Total_bus_14_1_1 + 42.6222 Total_bus_14_2_0
 + 42.6222 Total_bus_14_2_1 + 51.3616 Total_bus_15_0_0
 + 50.5344 Total_bus_15_1_0 + 50.5344 Total_bus_15_1_1
 + 65.9504 Total_bus_15_2_0 + 65.9504 Total_bus_15_2_1
 + 41.7996 Total_bus_16_0_0 + 41.1264 Total_bus_16_1_0
 + 41.1264 Total_bus_16_1_1 + 53.6724 Total_bus_16_2_0
 + 53.6724 Total_bus_16_2_1 + 43.712 Total_bus_17_0_0
 + 43.008 Total_bus_17_1_0 + 43.008 Total_bus_17_1_1 + 56.128 Total_bus_17_2_0
 + 56.128 Total_bus_17_2_1 + 40.1604 Total_bus_18_0_0
 + 39.5136 Total_bus_18_1_0 + 39.5136 Total_bus_18_1_1
 + 51.5676 Total_bus_18_2_0 + 51.5676 Total_bus_18_2_1
 + 47.81 Total_bus_19_0_0 + 47.04 Total_bus_19_1_0 + 47.04 Total_bus_19_1_1
 + 61.39 Total_bus_19_2_0 + 61.39 Total_bus_19_2_1 + 30.052 Total_bus_1_0_0
 + 29.568 Total_bus_1_1_0 + 29.568 Total_bus_1_1_1 + 38.588 Total_bus_1_2_0
 + 38.588 Total_bus_1_2_1 + 35.516 Total_bus_20_0_0 + 34.944 Total_bus_20_1_0
 + 34.944 Total_bus_20_1_1 + 45.604 Total_bus_20_2_0 + 45.604 Total_bus_20_2_1
 + 46.444 Total_bus_21_0_0 + 45.696 Total_bus_21_1_0 + 45.696 Total_bus_21_1_1
 + 59.636 Total_bus_21_2_0 + 59.636 Total_bus_21_2_1 + 40.98 Total_bus_22_0_0
 + 40.32 Total_bus_22_1_0 + 40.32 Total_bus_22_1_1 + 52.62 Total_bus_22_2_0
 + 52.62 Total_bus_22_2_1 + 32.5108 Total_bus_23_0_0
 + 31.9872 Total_bus_23_1_0 + 31.9872 Total_bus_23_1_1
 + 41.7452 Total_bus_23_2_0 + 41.7452 Total_bus_23_2_1
 + 33.8768 Total_bus_24_0_0 + 33.3312 Total_bus_24_1_0
 + 33.3312 Total_bus_24_1_1 + 43.4992 Total_bus_24_2_0
 + 43.4992 Total_bus_24_2_1 + 32.101 Total_bus_25_0_0
 + 31.584 Total_bus_25_1_0 + 31.584 Total_bus_25_1_1 + 41.219 Total_bus_25_2_0
 + 41.219 Total_bus_25_2_1 + 32.784 Total_bus_26_0_0 + 32.256 Total_bus_26_1_0
 + 32.256 Total_bus_26_1_1 + 42.096 Total_bus_26_2_0 + 42.096 Total_bus_26_2_1
 + 31.9644 Total_bus_27_0_0 + 31.4496 Total_bus_27_1_0
 + 31.4496 Total_bus_27_1_1 + 41.0436 Total_bus_27_2_0
 + 41.0436 Total_bus_27_2_1 + 34.4232 Total_bus_28_0_0
 + 33.8688 Total_bus_28_1_0 + 33.8688 Total_bus_28_1_1
 + 44.2008 Total_bus_28_2_0 + 44.2008 Total_bus_28_2_1
 + 32.784 Total_bus_29_0_0 + 32.256 Total_bus_29_1_0 + 32.256 Total_bus_29_1_1
 + 42.096 Total_bus_29_2_0 + 42.096 Total_bus_29_2_1 + 33.467 Total_bus_2_0_0
 + 32.928 Total_bus_2_1_0 + 32.928 Total_bus_2_1_1 + 42.973 Total_bus_2_2_0
 + 42.973 Total_bus_2_2_1 + 31.6912 Total_bus_30_0_0
 + 31.1808 Total_bus_30_1_0 + 31.1808 Total_bus_30_1_1
 + 40.6928 Total_bus_30_2_0 + 40.6928 Total_bus_30_2_1
 + 39.4774 Total_bus_31_0_0 + 38.8416 Total_bus_31_1_0
 + 38.8416 Total_bus_31_1_1 + 50.6906 Total_bus_31_2_0
 + 50.6906 Total_bus_31_2_1 + 48.7662 Total_bus_32_0_0
 + 47.9808 Total_bus_32_1_0 + 47.9808 Total_bus_32_1_1
 + 62.6178 Total_bus_32_2_0 + 62.6178 Total_bus_32_2_1
 + 112.8316 Total_bus_33_0_0 + 111.0144 Total_bus_33_1_0
 + 111.0144 Total_bus_33_1_1 + 144.8804 Total_bus_33_2_0
 + 144.8804 Total_bus_33_2_1 + 77.862 Total_bus_34_0_0
 + 76.608 Total_bus_34_1_0 + 76.608 Total_bus_34_1_1 + 99.978 Total_bus_34_2_0
 + 99.978 Total_bus_34_2_1 + 34.4232 Total_bus_3_0_0 + 33.8688 Total_bus_3_1_0
 + 33.8688 Total_bus_3_1_1 + 44.2008 Total_bus_3_2_0 + 44.2008 Total_bus_3_2_1
 + 30.052 Total_bus_4_0_0 + 29.568 Total_bus_4_1_0 + 29.568 Total_bus_4_1_1
 + 38.588 Total_bus_4_2_0 + 38.588 Total_bus_4_2_1 + 32.5108 Total_bus_5_0_0
 + 31.9872 Total_bus_5_1_0 + 31.9872 Total_bus_5_1_1 + 41.7452 Total_bus_5_2_0
 + 41.7452 Total_bus_5_2_1 + 46.7172 Total_bus_6_0_0 + 45.9648 Total_bus_6_1_0
 + 45.9648 Total_bus_6_1_1 + 59.9868 Total_bus_6_2_0 + 59.9868 Total_bus_6_2_1
 + 31.9644 Total_bus_7_0_0 + 31.4496 Total_bus_7_1_0 + 31.4496 Total_bus_7_1_1
 + 41.0436 Total_bus_7_2_0 + 41.0436 Total_bus_7_2_1 + 36.882 Total_bus_8_0_0
 + 36.288 Total_bus_8_1_0 + 36.288 Total_bus_8_1_1 + 47.358 Total_bus_8_2_0
 + 47.358 Total_bus_8_2_1 + 48.0832 Total_bus_9_0_0 + 47.3088 Total_bus_9_1_0
 + 47.3088 Total_bus_9_1_1 + 61.7408 Total_bus_9_2_0 + 61.7408 Total_bus_9_2_1
Subject To
_C1: Total_bus_0_0_0 + Total_bus_10_0_0 + Total_bus_11_0_0 + Total_bus_12_0_0
 + Total_bus_13_0_0 + Total_bus_14_0_0 + Total_bus_15_0_0 + Total_bus_16_0_0
 + Total_bus_17_0_0 + Total_bus_18_0_0 + Total_bus_19_0_0 + Total_bus_1_0_0
 + Total_bus_20_0_0 + Total_bus_21_0_0 + Total_bus_22_0_0 + Total_bus_23_0_0
 + Total_bus_24_0_0 + Total_bus_25_0_0 + Total_bus_26_0_0 + Total_bus_27_0_0
 + Total_bus_28_0_0 + Total_bus_29_0_0 + Total_bus_2_0_0 + Total_bus_30_0_0
 + Total_bus_31_0_0 + Total_bus_32_0_0 + Total_bus_33_0_0 + Total_bus_34_0_0
 + Total_bus_3_0_0 + Total_bus_4_0_0 + Total_bus_5_0_0 + Total_bus_6_0_0
 + Total_bus_7_0_0 + Total_bus_8_0_0 + Total_bus_9_0_0 <= 7
_C10: 400 Total_bus_4_0_0 + 400 Total_bus_4_1_0 + 460 Total_bus_4_1_1
 + 300 Total_bus_4_2_0 + 400 Total_bus_4_2_1 >= 2750
_C11: 280 Total_bus_5_0_0 + 280 Total_bus_5_1_0 + 322 Total_bus_5_1_1
 + 210 Total_bus_5_2_0 + 280 Total_bus_5_2_1 >= 2705
_C12: 240 Total_bus_6_0_0 + 240 Total_bus_6_1_0 + 276 Total_bus_6_1_1
 + 180 Total_bus_6_2_0 + 240 Total_bus_6_2_1 >= 2564
_C13: 520 Total_bus_7_0_0 + 520 Total_bus_7_1_0 + 598 Total_bus_7_1_1
 + 390 Total_bus_7_2_0 + 520 Total_bus_7_2_1 >= 2211
_C14: 200 Total_bus_8_0_0 + 200 Total_bus_8_1_0 + 230 Total_bus_8_1_1
 + 150 Total_bus_8_2_0 + 200 Total_bus_8_2_1 >= 2041
_C15: 320 Total_bus_9_0_0 + 320 Total_bus_9_1_0 + 368 Total_bus_9_1_1
 + 240 Total_bus_9_2_0 + 320 Total_bus_9_2_1 >= 1992
_C16: 400 Total_bus_10_0_0 + 400 Total_bus_10_1_0 + 460 Total_bus_10_1_1
 + 300 Total_bus_10_2_0 + 400 Total_bus_10_2_1 >= 1920
_C17: 360 Total_bus_11_0_0 + 360 Total_bus_11_1_0 + 414 Total_bus_11_1_1
 + 270 Total_bus_11_2_0 + 360 Total_bus_11_2_1 >= 1711
_C18: 280 Total_bus_12_0_0 + 280 Total_bus_12_1_0 + 322 Total_bus_12_1_1
 + 210 Total_bus_12_2_0 + 280 Total_bus_12_2_1 >= 1675
_C19: 200 Total_bus_13_0_0 + 200 Total_bus_13_1_0 + 230 Total_bus_13_1_1
 + 150 Total_bus_13_2_0 + 200 Total_bus_13_2_1 >= 1569
_C2: Total_bus_0_1_0 + Total_bus_10_1_0 + Total_bus_11_1_0 + Total_bus_12_1_0
 + Total_bus_13_1_0 + Total_bus_14_1_0 + Total_bus_15_1_0 + Total_bus_16_1_0
 + Total_bus_17_1_0 + Total_bus_18_1_0 + Total_bus_19_1_0 + Total_bus_1_1_0
 + Total_bus_20_1_0 + Total_bus_21_1_0 + Total_bus_22_1_0 + Total_bus_23_1_0
 + Total_bus_24_1_0 + Total_bus_25_1_0 + Total_bus_26_1_0 + Total_bus_27_1_0
 + Total_bus_28_1_0 + Total_bus_29_1_0 + Total_bus_2_1_0 + Total_bus_30_1_0
 + Total_bus_31_1_0 + Total_bus_32_1_0 + Total_bus_33_1_0 + Total_bus_34_1_0
 + Total_bus_3_1_0 + Total_bus_4_1_0 + Total_bus_5_1_0 + Total_bus_6_1_0
 + Total_bus_7_1_0 + Total_bus_8_1_0 + Total_bus_9_1_0 <= 12
_C20: 360 Total_bus_14_0_0 + 360 Total_bus_14_1_0 + 414 Total_bus_14_1_1
 + 270 Total_bus_14_2_0 + 360 Total_bus_14_2_1 >= 1433
_C21: 320 Total_bus_15_0_0 + 320 Total_bus_15_1_0 + 368 Total_bus_15_1_1
 + 240 Total_bus_15_2_0 + 320 Total_bus_15_2_1 >= 1398
_C22: 360 Total_bus_16_0_0 + 360 Total_bus_16_1_0 + 414 Total_bus_16_1_1
 + 270 Total_bus_16_2_0 + 360 Total_bus_16_2_1 >= 1295
_C23: 200 Total_bus_17_0_0 + 200 Total_bus_17_1_0 + 230 Total_bus_17_1_1
 + 150 Total_bus_17_2_0 + 200 Total_bus_17_2_1 >= 1229
_C24: 280 Total_bus_18_0_0 + 280 Total_bus_18_1_0 + 322 Total_bus_18_1_1
 + 210 Total_bus_18_2_0 + 280 Total_bus_18_2_1 >= 1187
_C25: 400 Total_bus_19_0_0 + 400 Total_bus_19_1_0 + 460 Total_bus_19_1_1
 + 300 Total_bus_19_2_0 + 400 Total_bus_19_2_1 >= 1150
_C26: 200 Total_bus_20_0_0 + 200 Total_bus_20_1_0 + 230 Total_bus_20_1_1
 + 150 Total_bus_20_2_0 + 200 Total_bus_20_2_1 >= 1146
_C27: 200 Total_bus_21_0_0 + 200 Total_bus_21_1_0 + 230 Total_bus_21_1_1
 + 150 Total_bus_21_2_0 + 200 Total_bus_21_2_1 >= 1051
_C28: 240 Total_bus_22_0_0 + 240 Total_bus_22_1_0 + 276 Total_bus_22_1_1
 + 180 Total_bus_22_2_0 + 240 Total_bus_22_2_1 >= 1010
_C29: 280 Total_bus_23_0_0 + 280 Total_bus_23_1_0 + 322 Total_bus_23_1_1
 + 210 Total_bus_23_2_0 + 280 Total_bus_23_2_1 >= 957
_C3: Total_bus_0_1_1 + Total_bus_10_1_1 + Total_bus_11_1_1 + Total_bus_12_1_1
 + Total_bus_13_1_1 + Total_bus_14_1_1 + Total_bus_15_1_1 + Total_bus_16_1_1
 + Total_bus_17_1_1 + Total_bus_18_1_1 + Total_bus_19_1_1 + Total_bus_1_1_1
 + Total_bus_20_1_1 + Total_bus_21_1_1 + Total_bus_22_1_1 + Total_bus_23_1_1
 + Total_bus_24_1_1 + Total_bus_25_1_1 + Total_bus_26_1_1 + Total_bus_27_1_1
 + Total_bus_28_1_1 + Total_bus_29_1_1 + Total_bus_2_1_1 + Total_bus_30_1_1
 + Total_bus_31_1_1 + Total_bus_32_1_1 + Total_bus_33_1_1 + Total_bus_34_1_1
 + Total_bus_3_1_1 + Total_bus_4_1_1 + Total_bus_5_1_1 + Total_bus_6_1_1
 + Total_bus_7_1_1 + Total_bus_8_1_1 + Total_bus_9_1_1 <= 141
_C30: 320 Total_bus_24_0_0 + 320 Total_bus_24_1_0 + 368 Total_bus_24_1_1
 + 240 Total_bus_24_2_0 + 320 Total_bus_24_2_1 >= 943
_C31: 200 Total_bus_25_0_0 + 200 Total_bus_25_1_0 + 230 Total_bus_25_1_1
 + 150 Total_bus_25_2_0 + 200 Total_bus_25_2_1 >= 925
_C32: 320 Total_bus_26_0_0 + 320 Total_bus_26_1_0 + 368 Total_bus_26_1_1
 + 240 Total_bus_26_2_0 + 320 Total_bus_26_2_1 >= 826
_C33: 360 Total_bus_27_0_0 + 360 Total_bus_27_1_0 + 414 Total_bus_27_1_1
 + 270 Total_bus_27_2_0 + 360 Total_bus_27_2_1 >= 808
_C34: 280 Total_bus_28_0_0 + 280 Total_bus_28_1_0 + 322 Total_bus_28_1_1
 + 210 Total_bus_28_2_0 + 280 Total_bus_28_2_1 >= 763
_C35: 480 Total_bus_29_0_0 + 480 Total_bus_29_1_0 + 552 Total_bus_29_1_1
 + 360 Total_bus_29_2_0 + 480 Total_bus_29_2_1 >= 708
_C36: 320 Total_bus_30_0_0 + 320 Total_bus_30_1_0 + 368 Total_bus_30_1_1
 + 240 Total_bus_30_2_0 + 320 Total_bus_30_2_1 >= 645
_C37: 680 Total_bus_31_0_0 + 680 Total_bus_31_1_0 + 782 Total_bus_31_1_1
 + 510 Total_bus_31_2_0 + 680 Total_bus_31_2_1 >= 324
_C38: 680 Total_bus_32_0_0 + 680 Total_bus_32_1_0 + 782 Total_bus_32_1_1
 + 510 Total_bus_32_2_0 + 680 Total_bus_32_2_1 >= 267
_C39: 280 Total_bus_33_0_0 + 280 Total_bus_33_1_0 + 322 Total_bus_33_1_1
 + 210 Total_bus_33_2_0 + 280 Total_bus_33_2_1 >= 231
_C4: Total_bus_0_2_0 + Total_bus_10_2_0 + Total_bus_11_2_0 + Total_bus_12_2_0
 + Total_bus_13_2_0 + Total_bus_14_2_0 + Total_bus_15_2_0 + Total_bus_16_2_0
 + Total_bus_17_2_0 + Total_bus_18_2_0 + Total_bus_19_2_0 + Total_bus_1_2_0
 + Total_bus_20_2_0 + Total_bus_21_2_0 + Total_bus_22_2_0 + Total_bus_23_2_0
 + Total_bus_24_2_0 + Total_bus_25_2_0 + Total_bus_26_2_0 + Total_bus_27_2_0
 + Total_bus_28_2_0 + Total_bus_29_2_0 + Total_bus_2_2_0 + Total_bus_30_2_0
 + Total_bus_31_2_0 + Total_bus_32_2_0 + Total_bus_33_2_0 + Total_bus_34_2_0
 + Total_bus_3_2_0 + Total_bus_4_2_0 + Total_bus_5_2_0 + Total_bus_6_2_0
 + Total_bus_7_2_0 + Total_bus_8_2_0 + Total_bus_9_2_0 <= 232
_C40: 400 Total_bus_34_0_0 + 400 Total_bus_34_1_0 + 460 Total_bus_34_1_1
 + 300 Total_bus_34_2_0 + 400 Total_bus_34_2_1 >= 53
_C5: Total_bus_0_2_1 + Total_bus_10_2_1 + Total_bus_11_2_1 + Total_bus_12_2_1
 + Total_bus_13_2_1 + Total_bus_14_2_1 + Total_bus_15_2_1 + Total_bus_16_2_1
 + Total_bus_17_2_1 + Total_bus_18_2_1 + Total_bus_19_2_1 + Total_bus_1_2_1
 + Total_bus_20_2_1 + Total_bus_21_2_1 + Total_bus_22_2_1 + Total_bus_23_2_1
 + Total_bus_24_2_1 + Total_bus_25_2_1 + Total_bus_26_2_1 + Total_bus_27_2_1
 + Total_bus_28_2_1 + Total_bus_29_2_1 + Total_bus_2_2_1 + Total_bus_30_2_1
 + Total_bus_31_2_1 + Total_bus_32_2_1 + Total_bus_33_2_1 + Total_bus_34_2_1
 + Total_bus_3_2_1 + Total_bus_4_2_1 + Total_bus_5_2_1 + Total_bus_6_2_1
 + Total_bus_7_2_1 + Total_bus_8_2_1 + Total_bus_9_2_1 <= 65
_C6: 520 Total_bus_0_0_0 + 520 Total_bus_0_1_0 + 598 Total_bus_0_1_1
 + 390 Total_bus_0_2_0 + 520 Total_bus_0_2_1 >= 3480
_C7: 400 Total_bus_1_0_0 + 400 Total_bus_1_1_0 + 460 Total_bus_1_1_1
 + 300 Total_bus_1_2_0 + 400 Total_bus_1_2_1 >= 3352
_C8: 280 Total_bus_2_0_0 + 280 Total_bus_2_1_0 + 322 Total_bus_2_1_1
 + 210 Total_bus_2_2_0 + 280 Total_bus_2_2_1 >= 3279
_C9: 480 Total_bus_3_0_0 + 480 Total_bus_3_1_0 + 552 Total_bus_3_1_1
 + 360 Total_bus_3_2_0 + 480 Total_bus_3_2_1 >= 2955
Bounds
 0 <= Total_bus_0_0_0
 0 <= Total_bus_0_1_0
 0 <= Total_bus_0_1_1
 0 <= Total_bus_0_2_0
 0 <= Total_bus_0_2_1
 0 <= Total_bus_10_0_0
 0 <= Total_bus_10_1_0
 0 <= Total_bus_10_1_1
 0 <= Total_bus_10_2_0
 0 <= Total_bus_10_2_1
 0 <= Total_bus_11_0_0
 0 <= Total_bus_11_1_0
 0 <= Total_bus_11_1_1
 0 <= Total_bus_11_2_0
 0 <= Total_bus_11_2_1
 0 <= Total_bus_12_0_0
 0 <= Total_bus_12_1_0
 0 <= Total_bus_12_1_1
 0 <= Total_bus_12_2_0
 0 <= Total_bus_12_2_1
 0 <= Total_bus_13_0_0
 0 <= Total_bus_13_1_0
 0 <= Total_bus_13_1_1
 0 <= Total_bus_13_2_0
 0 <= Total_bus_13_2_1
 0 <= Total_bus_14_0_0
 0 <= Total_bus_14_1_0
 0 <= Total_bus_14_1_1
 0 <= Total_bus_14_2_0
 0 <= Total_bus_14_2_1
 0 <= Total_bus_15_0_0
 0 <= Total_bus_15_1_0
 0 <= Total_bus_15_1_1
 0 <= Total_bus_15_2_0
 0 <= Total_bus_15_2_1
 0 <= Total_bus_16_0_0
 0 <= Total_bus_16_1_0
 0 <= Total_bus_16_1_1
 0 <= Total_bus_16_2_0
 0 <= Total_bus_16_2_1
 0 <= Total_bus_17_0_0
 0 <= Total_bus_17_1_0
 0 <= Total_bus_17_1_1
 0 <= Total_bus_17_2_0
 0 <= Total_bus_17_2_1
 0 <= Total_bus_18_0_0
 0 <= Total_bus_18_1_0
 0 <= Total_bus_18_1_1
 0 <= Total_bus_18_2_0
 0 <= Total_bus_18_2_1
 0 <= Total_bus_19_0_0
 0 <= Total_bus_19_1_0
 0 <= Total_bus_19_1_1
 0 <= Total_bus_19_2_0
 0 <= Total_bus_19_2_1
 0 <= Total_bus_1_0_0
 0 <= Total_bus_1_1_0
 0 <= Total_bus_1_1_1
 0 <= Total_bus_1_2_0
 0 <= Total_bus_1_2_1
 0 <= Total_bus_20_0_0
 0 <= Total_bus_20_1_0
 0 <= Total_bus_20_1_1
 0 <= Total_bus_20_2_0
 0 <= Total_bus_20_2_1
 0 <= Total_bus_21_0_0
 0 <= Total_bus_21_1_0
 0 <= Total_bus_21_1_1
 0 <= Total_bus_21_2_0
 0 <= Total_bus_21_2_1
 0 <= Total_bus_22_0_0
 0 <= Total_bus_22_1_0
 0 <= Total_bus_22_1_1
 0 <= Total_bus_22_2_0
 0 <= Total_bus_22_2_1
 0 <= Total_bus_23_0_0
 0 <= Total_bus_23_1_0
 0 <= Total_bus_23_1_1
 0 <= Total_bus_23_2_0
 0 <= Total_bus_23_2_1
 0 <= Total_bus_24_0_0
 0 <= Total_bus_24_1_0
 0 <= Total_bus_24_1_1
 0 <= Total_bus_24_2_0
 0 <= Total_bus_24_2_1
 0 <= Total_bus_25_0_0
 0 <= Total_bus_25_1_0
 0 <= Total_bus_25_1_1
 0 <= Total_bus_25_2_0
 0 <= Total_bus_25_2_1
 0 <= Total_bus_26_0_0
 0 <= Total_bus_26_1_0
 0 <= Total_bus_26_1_1
 0 <= Total_bus_26_2_0
 0 <= Total_bus_26_2_1
 0 <= Total_bus_27_0_0
 0 <= Total_bus_27_1_0
 0 <= Total_bus_27_1_1
 0 <= Total_bus_27_2_0
 0 <= Total_bus_27_2_1
 0 <= Total_bus_28_0_0
 0 <= Total_bus_28_1_0
 0 <= Total_bus_28_1_1
 0 <= Total_bus_28_2_0
 0 <= Total_bus_28_2_1
 0 <= Total_bus_29_0_0
 0 <= Total_bus_29_1_0
 0 <= Total_bus_29_1_1
 0 <= Total_bus_29_2_0
 0 <= Total_bus_29_2_1
 0 <= Total_bus_2_0_0
 0 <= Total_bus_2_1_0
 0 <= Total_bus_2_1_1
 0 <= Total_bus_2_2_0
 0 <= Total_bus_2_2_1
 0 <= Total_bus_30_0_0
 0 <= Total_bus_30_1_0
 0 <= Total_bus_30_1_1
 0 <= Total_bus_30_2_0
 0 <= Total_bus_30_2_1
 0 <= Total_bus_31_0_0
 0 <= Total_bus_31_1_0
 0 <= Total_bus_31_1_1
 0 <= Total_bus_31_2_0
 0 <= Total_bus_31_2_1
 0 <= Total_bus_32_0_0
 0 <= Total_bus_32_1_0
 0 <= Total_bus_32_1_1
 0 <= Total_bus_32_2_0
 0 <= Total_bus_32_2_1
 0 <= Total_bus_33_0_0
 0 <= Total_bus_33_1_0
 0 <= Total_bus_33_1_1
 0 <= Total_bus_33_2_0
 0 <= Total_bus_33_2_1
 0 <= Total_bus_34_0_0
 0 <= Total_bus_34_1_0
 0 <= Total_bus_34_1_1
 0 <= Total_bus_34_2_0
 0 <= Total_bus_34_2_1
 0 <= Total_bus_3_0_0
 0 <= Total_bus_3_1_0
 0 <= Total_bus_3_1_1
 0 <= Total_bus_3_2_0
 0 <= Total_bus_3_2_1
 0 <= Total_bus_4_0_0
 0 <= Total_bus_4_1_0
 0 <= Total_bus_4_1_1
 0 <= Total_bus_4_2_0
 0 <= Total_bus_4_2_1
 0 <= Total_bus_5_0_0
 0 <= Total_bus_5_1_0
 0 <= Total_bus_5_1_1
 0 <= Total_bus_5_2_0
 0 <= Total_bus_5_2_1
 0 <= Total_bus_6_0_0
 0 <= Total_bus_6_1_0
 0 <= Total_bus_6_1_1
 0 <= Total_bus_6_2_0
 0 <= Total_bus_6_2_1
 0 <= Total_bus_7_0_0
 0 <= Total_bus_7_1_0
 0 <= Total_bus_7_1_1
 0 <= Total_bus_7_2_0
 0 <= Total_bus_7_2_1
 0 <= Total_bus_8_0_0
 0 <= Total_bus_8_1_0
 0 <= Total_bus_8_1_1
 0 <= Total_bus_8_2_0
 0 <= Total_bus_8_2_1
 0 <= Total_bus_9_0_0
 0 <= Total_bus_9_1_0
 0 <= Total_bus_9_1_1
 0 <= Total_bus_9_2_0
 0 <= Total_bus_9_2_1
Generals
Total_bus_0_0_0
Total_bus_0_1_0
Total_bus_0_1_1
Total_bus_0_2_0
Total_bus_0_2_1
Total_bus_10_0_0
Total_bus_10_1_0
Total_bus_10_1_1
Total_bus_10_2_0
Total_bus_10_2_1
Total_bus_11_0_0
Total_bus_11_1_0
Total_bus_11_1_1
Total_bus_11_2_0
Total_bus_11_2_1
Total_bus_12_0_0
Total_bus_12_1_0
Total_bus_12_1_1
Total_bus_12_2_0
Total_bus_12_2_1
Total_bus_13_0_0
Total_bus_13_1_0
Total_bus_13_1_1
Total_bus_13_2_0
Total_bus_13_2_1
Total_bus_14_0_0
Total_bus_14_1_0
Total_bus_14_1_1
Total_bus_14_2_0
Total_bus_14_2_1
Total_bus_15_0_0
Total_bus_15_1_0
Total_bus_15_1_1
Total_bus_15_2_0
Total_bus_15_2_1
Total_bus_16_0_0
Total_bus_16_1_0
Total_bus_16_1_1
Total_bus_16_2_0
Total_bus_16_2_1
Total_bus_17_0_0
Total_bus_17_1_0
Total_bus_17_1_1
Total_bus_17_2_0
Total_bus_17_2_1
Total_bus_18_0_0
Total_bus_18_1_0
Total_bus_18_1_1
Total_bus_18_2_0
Total_bus_18_2_1
Total_bus_19_0_0
Total_bus_19_1_0
Total_bus_19_1_1
Total_bus_19_2_0
Total_bus_19_2_1
Total_bus_1_0_0
Total_bus_1_1_0
Total_bus_1_1_1
Total_bus_1_2_0
Total_bus_1_2_1
Total_bus_20_0_0
Total_bus_20_1_0
Total_bus_20_1_1
Total_bus_20_2_0
Total_bus_20_2_1
Total_bus_21_0_0
Total_bus_21_1_0
Total_bus_21_1_1
Total_bus_21_2_0
Total_bus_21_2_1
Total_bus_22_0_0
Total_bus_22_1_0
Total_bus_22_1_1
Total_bus_22_2_0
Total_bus_22_2_1
Total_bus_23_0_0
Total_bus_23_1_0
Total_bus_23_1_1
Total_bus_23_2_0
Total_bus_23_2_1
Total_bus_24_0_0
Total_bus_24_1_0
Total_bus_24_1_1
Total_bus_24_2_0
Total_bus_24_2_1
Total_bus_25_0_0
Total_bus_25_1_0
Total_bus_25_1_1
Total_bus_25_2_0
Total_bus_25_2_1
Total_bus_26_0_0
Total_bus_26_1_0
Total_bus_26_1_1
Total_bus_26_2_0
Total_bus_26_2_1
Total_bus_27_0_0
Total_bus_27_1_0
Total_bus_27_1_1
Total_bus_27_2_0
Total_bus_27_2_1
Total_bus_28_0_0
Total_bus_28_1_0
Total_bus_28_1_1
Total_bus_28_2_0
Total_bus_28_2_1
Total_bus_29_0_0
Total_bus_29_1_0
Total_bus_29_1_1
Total_bus_29_2_0
Total_bus_29_2_1
Total_bus_2_0_0
Total_bus_2_1_0
Total_bus_2_1_1
Total_bus_2_2_0
Total_bus_2_2_1
Total_bus_30_0_0
Total_bus_30_1_0
Total_bus_30_1_1
Total_bus_30_2_0
Total_bus_30_2_1
Total_bus_31_0_0
Total_bus_31_1_0
Total_bus_31_1_1
Total_bus_31_2_0
Total_bus_31_2_1
Total_bus_32_0_0
Total_bus_32_1_0
Total_bus_32_1_1
Total_bus_32_2_0
Total_bus_32_2_1
Total_bus_33_0_0
Total_bus_33_1_0
Total_bus_33_1_1
Total_bus_33_2_0
Total_bus_33_2_1
Total_bus_34_0_0
Total_bus_34_1_0
Total_bus_34_1_1
Total_bus_34_2_0
Total_bus_34_2_1
Total_bus_3_0_0
Total_bus_3_1_0
Total_bus_3_1_1
Total_bus_3_2_0
Total_bus_3_2_1
Total_bus_4_0_0
Total_bus_4_1_0
Total_bus_4_1_1
Total_bus_4_2_0
Total_bus_4_2_1
Total_bus_5_0_0
Total_bus_5_1_0
Total_bus_5_1_1
Total_bus_5_2_0
Total_bus_5_2_1
Total_bus_6_0_0
Total_bus_6_1_0
Total_bus_6_1_1
Total_bus_6_2_0
Total_bus_6_2_1
Total_bus_7_0_0
Total_bus_7_1_0
Total_bus_7_1_1
Total_bus_7_2_0
Total_bus_7_2_1
Total_bus_8_0_0
Total_bus_8_1_0
Total_bus_8_1_1
Total_bus_8_2_0
Total_bus_8_2_1
Total_bus_9_0_0
Total_bus_9_1_0
Total_bus_9_1_1
Total_bus_9_2_0
Total_bus_9_2_1
End
